600,628,652,717,738,758,823,832,847,912,938,944,1010,1030,1103,1124,1130,1201,1226,1300,1336,1400,1436,1456,1508,1537,1555,1617,1636,1649,1710,1729,1748,1756,1809,1834,1846,1912,1933,1955,2012,2030,2058,2112,2130,2158,2112,2136,2139,2209,2254,2335
443,536,551,626,649,725,801,818,831,852,911,937,1002,1033,1102,1137,1202,1236,1302,1336,1402,1434,1502,1528,1550,1612,1637,1709,1749,1808,1834,1853,1932,1958,2032,2110,2130,2212,2256,2336
505,540,603,621,648,701,710,724,733,747,800,812,835,844,911,936,955,1020,1050,1109,1130,1138,1152,1211,1228,1255,1322,1341,1401,1428,1452,1504,1527,1557,1611,1625,1644,1703,1726,1741,1809,1821,1832,1850,1917,1929,1955,2012,2033,2055,2115,2154,2229,2257,2312,2339
